7639640660762143399508,5,1,2,013,2,1,2,04,6,1,2,013,12,1,2,07,15,1,2,012,3,1,2,01,8,1,2,09,4,1,2,08,2,1,2,015,7,1,2,015,5,1,2,04,8,1,2,03,9,1,2,011,1,1,2,013,6,1,2,09,10,1,2,09,6,1,2,015,12,1,2,03,7,1,2,04,8,1,2,09,12,1,2,013,8,1,2,013,11,1,2,05,15,1,2,03,8,1,2,07,13,1,2,09,10,1,2,04,10,1,2,05,12,1,2,014,12,1,2,011,1,1,2,015,15,1,2,07,2,1,2,04,8,1,2,011,6,1,2,08,8,1,2,011,11,1,2,014,14,1,2,05,5,1,2,09,2,1,2,011,7,1,2,014,15,1,2,014,15,1,2,01,13,1,2,01,2,1,2,02,7,1,2,01,5,1,2,06,4,1,2,010,6,1,2,010,7,1,2,0